rehearsal = [[1,1,1,0,0,1,1,1,0,0], [0,0,1,0,1,0,0,1,1,1], [0,0,1,1,1,1,1,1,1,1], [0,1,1,1,1,0,0,1,0,1], [0,1,1,0,1,1,0,1,0,1], [1,1,0,1,1,1,0,1,1,1], [1,0,1,0,1,0,0,1,0,0], [1,1,1,0,1,0,1,1,1,1], [1,1,0,1,1,0,1,0,1,1], [1,1,1,1,0,1,1,1,1,1]];
permutations = [9,4,10,5,3,8,2,6,1,7];